Problem:    
Rows:       105
Columns:    45 (34 integer, 34 binary)
Non-zeros:  302
Status:     INTEGER OPTIMAL
Objective:  value = 35.142089 (MINimum)

   No.   Row name        Activity     Lower bound   Upper bound
------ ------------    ------------- ------------- -------------
     1 r.5                   2035.14             0               
     2 r.6                  -1964.86      -1995.72               
     3 r.7                   35.1421             0               
     4 r.8                   11.9138       -1993.1               
     5 r.9                   2035.14             0               
     6 r.10                 -1982.91      -1993.62               
     7 r.11                  35.1421             0               
     8 r.12                  23.2863      -1988.63               
     9 r.13                  35.1421             0               
    10 r.14                  10.7129      -1992.36               
    11 r.15                  2035.14             0               
    12 r.16                 -1964.86      -1988.14               
    13 r.17                  2035.14             0               
    14 r.18                 -1969.14      -1986.23               
    15 r.19                  35.1421             0               
    16 r.20                 -1944.67      -1979.81               
    17 r.21                  2035.14             0               
    18 r.22                 -1998.99      -1998.99               
    19 r.23                  35.1421             0               
    20 r.24                   1.0148      -1997.36               
    21 r.25                        1             1             = 
    22 r.26                        1             1             = 
    23 r.27                        1             1             = 
    24 r.28                        1             1             = 
    25 r.29                        1             1             = 
    26 r.30                  1981.95        6.3814               
    27 r.31                 -1981.95      -1995.72               
    28 r.32                  11.3725       11.3725               
    29 r.33                 -11.3725       -1993.1               
    30 r.34                  1975.57        7.6379               
    31 r.35                 -1975.57      -1995.72               
    32 r.36                  23.2283       11.8558               
    33 r.37                 -23.2283       -1993.1               
    34 r.38                  1995.72       13.7691               
    35 r.39                 -1995.72      -1995.72               
    36 r.40                  43.4205       20.1922               
    37 r.41                 -43.4205       -1993.1               
    38 r.42                 -1965.87      -1986.02               
    39 r.43                   10.899       -1973.7               
    40 r.44                 -1965.87      -1986.02               
    41 r.45                   10.899       -1973.7               
    42 r.46                  18.0478        4.2787               
    43 r.47                 -18.0478      -1993.62               
    44 r.48                  1988.63        6.9037               
    45 r.49                 -1988.63      -1988.63               
    46 r.50                  1993.62        7.6379               
    47 r.51                 -1993.62      -1993.62               
    48 r.52                  11.8558       11.8558               
    49 r.53                 -11.8558      -1988.63               
    50 r.54                  13.7691       13.7691               
    51 r.55                 -13.7691      -1993.62               
    52 r.56                   32.048       20.1922               
    53 r.57                  -32.048      -1988.63               
    54 r.58                 -1983.92      -1983.92               
    55 r.59                  22.2715      -1969.23               
    56 r.60                 -1983.92      -1983.92               
    57 r.61                  22.2715      -1969.23               
    58 r.62                  24.4292        4.2787               
    59 r.63                 -24.4292      -1992.36               
    60 r.64                  1976.77        6.9037               
    61 r.65                 -1976.77      -1988.14               
    62 r.66                   6.3814        6.3814               
    63 r.67                  -6.3814      -1992.36               
    64 r.68                  1988.14       11.3725               
    65 r.69                 -1988.14      -1988.14               
    66 r.70                  20.1505       13.7691               
    67 r.71                 -20.1505      -1992.36               
    68 r.72                  20.1922       20.1922               
    69 r.73                 -20.1922      -1988.14               
    70 r.74                  9.69809      -1982.66               
    71 r.75                 -1965.87      -1968.75               
    72 r.76                  9.69809      -1982.66               
    73 r.77                 -1965.87      -1968.75               
    74 r.78                   4.2787        4.2787               
    75 r.79                  -4.2787      -1986.23               
    76 r.80                  1956.58        6.9037               
    77 r.81                 -1956.58      -1979.81               
    78 r.82                  1986.23        6.3814               
    79 r.83                 -1986.23      -1986.23               
    80 r.84                  1967.95       11.3725               
    81 r.85                 -1967.95      -1979.81               
    82 r.86                  1979.85        7.6379               
    83 r.87                 -1979.85      -1986.23               
    84 r.88                  1979.81       11.8558               
    85 r.89                 -1979.81      -1979.81               
    86 r.90                 -1970.15      -1976.53               
    87 r.91                 -1945.68      -1960.41               
    88 r.92                 -1970.15      -1976.53               
    89 r.93                 -1945.68      -1960.41               
    90 r.94                 -1965.87      -1986.02               
    91 r.95                   10.899       -1973.7               
    92 r.96                 -1965.87      -1986.02               
    93 r.97                   10.899       -1973.7               
    94 r.98                 -1983.92      -1983.92               
    95 r.99                  22.2715      -1969.23               
    96 r.100                -1983.92      -1983.92               
    97 r.101                 22.2715      -1969.23               
    98 r.102                 9.69809      -1982.66               
    99 r.103                -1965.87      -1968.75               
   100 r.104                 9.69809      -1982.66               
   101 r.105                -1965.87      -1968.75               
   102 r.106                -1970.15      -1976.53               
   103 r.107                -1945.68      -1960.41               
   104 r.108                -1970.15      -1976.53               
   105 r.109                -1945.68      -1960.41               

   No. Column name       Activity     Lower bound   Upper bound
------ ------------    ------------- ------------- -------------
     1 tt                    35.1421             0               
     2 s_1_1        *              1             0             1 
     3 t_1_1                       0             0               
     4 s_2_1        *              0             0             1 
     5 t_2_1                 23.2283             0               
     6 s_1_2        *              1             0             1 
     7 t_1_2                 18.0478             0               
     8 s_2_2        *              0             0             1 
     9 t_2_2                 11.8558             0               
    10 s_1_3        *              0             0             1 
    11 t_1_3                 24.4292             0               
    12 s_2_3        *              1             0             1 
    13 t_2_3                       0             0               
    14 s_1_4        *              1             0             1 
    15 t_1_4                  4.2787             0               
    16 s_2_4        *              0             0             1 
    17 t_2_4                 1979.81             0               
    18 s_1_5        *              1             0             1 
    19 t_1_5                 34.1273             0               
    20 s_2_5        *              0             0             1 
    21 t_2_5                 34.1273             0               
    22 u_1_1_2      *              1             0             1 
    23 u_2_1_2      *              0             0             1 
    24 u_1_1_3      *              1             0             1 
    25 u_2_1_3      *              0             0             1 
    26 u_1_1_4      *              1             0             1 
    27 u_2_1_4      *              1             0             1 
    28 u_1_2_1      *              0             0             1 
    29 u_2_2_1      *              1             0             1 
    30 u_1_2_3      *              1             0             1 
    31 u_2_2_3      *              0             0             1 
    32 u_1_2_4      *              0             0             1 
    33 u_2_2_4      *              1             0             1 
    34 u_1_3_1      *              0             0             1 
    35 u_2_3_1      *              1             0             1 
    36 u_1_3_2      *              0             0             1 
    37 u_2_3_2      *              1             0             1 
    38 u_1_3_4      *              0             0             1 
    39 u_2_3_4      *              1             0             1 
    40 u_1_4_1      *              0             0             1 
    41 u_2_4_1      *              0             0             1 
    42 u_1_4_2      *              1             0             1 
    43 u_2_4_2      *              0             0             1 
    44 u_1_4_3      *              1             0             1 
    45 u_2_4_3      *              0             0             1 

Integer feasibility conditions:

KKT.PE: max.abs.err = 0.00e+00 on row 0
        max.rel.err = 0.00e+00 on row 0
        High quality

KKT.PB: max.abs.err = 2.27e-13 on row 79
        max.rel.err = 1.19e-14 on row 50
        High quality

End of output
